Route #1: 26 27 28 68 67 106 105 104 103 102 62 63 64 24 23 22
Route #2: 25 65 66 107 147 146 145 144 184 185 186 187 227 226 225 224 223 183 143 142 141 101 61 21
Route #3: 30 29 69 109 108 148 149 189 188 228 229 230 231 191 190 150 151 152 153 113 112 111 110 70 71 31
Route #4: 33 32 72 73 74 114 154 194 193 192 232 233 234 235 236 237 238 198 197 156 115 75 76 35 34
Route #5: 38 39 40 80 79 119 120 81 121 160 159 158 157 196 195 155 116 117 118 78 77 37 36
Route #6: 2 3 43 83 84 124 164 204 203 202 201 240 239 199 200 161 162 163 123 122 82 42 41 1
Route #7: 4 44 45 46 86 85 125 126 127 167 166 165 205 206 207 208 168 128 88 87 47 7 6 5
Route #8: 9 10 11 12 13 53 93 133 132 131 171 172 212 211 210 209 169 170 130 129 89 90 91 92 52 51 50 49 48 8
Route #9: 14 54 94 134 135 175 174 173 213 214 215 216 217 218 178 177 176 136 96 95 55 15
Route #10: 17 16 56 57 97 137 138 139 179 219 220 221 222 182 181 180 140 100 99 98 58 59 60 20 19 18
Cost 5827
